(set-info :status unknown)
(declare-fun %Y () (_ BitVec 26))
(declare-fun %X () (_ BitVec 26))
(assert
 (let (($x19536 (and (distinct (bvudiv ((_ zero_extend 16) %X) ((_ zero_extend 16) %Y)) ((_ zero_extend 16) (bvudiv %X %Y))) true)))
 (and (and (distinct ((_ zero_extend 16) %Y) (_ bv0 42)) true) $x19536)))
(check-sat)
